<instance format="XCSP3" type="CSP">
  <variables>
    <var id="x0"> 3 7 13 </var>
    <var id="x1"> 1 4 8 10 13 </var>
    <var id="x2"> 3 7 10 16 </var>
    <var id="x3"> 8 13 </var>
    <var id="x4"> 3 4 7 8 10 </var>
    <var id="x5"> 1 3 4 7 8 </var>
    <var id="x6"> 1 4 8 </var>
    <var id="x7"> 3 7 16 </var>
    <var id="x8"> 10 </var>
    <var id="x9"> 10 13 15 </var>
    <var id="x10"> 2 4 13 </var>
    <var id="x11"> 5 13..15 </var>
    <var id="x12"> 5 10 13 14 </var>
    <var id="x13"> 4 5 11 14 </var>
    <var id="x14"> 5 14 </var>
    <var id="x15"> 4 13 14 </var>
    <var id="x16"> 1 4 6 13 </var>
    <var id="x17"> 1 3 9 13 </var>
    <var id="x18"> 6 12 13 </var>
    <var id="x19"> 3 12 13 </var>
    <var id="x20"> 3 6 13 </var>
    <var id="x21"> 4 7 9 </var>
    <var id="x22"> 3 4 7 9 </var>
    <var id="x23"> 3 4 9 12 13 </var>
    <var id="x24"> 5 7 15 </var>
    <var id="x25"> 3 7 9 10 17 </var>
    <var id="x26"> 3 9 10 15 17 </var>
    <var id="x27"> 5 17 </var>
    <var id="x28"> 3 5 14 15 17 </var>
    <var id="x29"> 7 9 10 15 </var>
    <var id="x30"> 3 5 7 14 </var>
    <var id="x31"> 3 5 9 14 </var>
    <var id="x32"> 3 7 13 15 </var>
    <var id="x33"> 4..7 15 </var>
    <var id="x34"> 4 6 13 </var>
    <var id="x35"> 3 7 16 </var>
    <var id="x36"> 3 13 15 </var>
    <var id="x37"> 3 4 6 7 15 </var>
    <var id="x38"> 4 5 </var>
    <var id="x39"> 3 5..7 16 </var>
    <var id="x40"> 3 7 11 15 </var>
    <var id="x41"> 0 5 8 17 </var>
    <var id="x42"> 3 5 8 17 </var>
    <var id="x43"> 3 5 7 8 11 </var>
    <var id="x44"> 5 8 </var>
    <var id="x45"> 0 8 11 </var>
    <var id="x46"> 3 5 7 17 </var>
    <var id="x47"> 0 3 8 17 </var>
    <var id="x48"> 3 7 9 </var>
    <var id="x49"> 0 4 8 10 </var>
    <var id="x50"> 0 3 4 8 </var>
    <var id="x51"> 3 5 8 10 </var>
    <var id="x52"> 0 4 7..10 </var>
    <var id="x53"> 0 3..5 7 9 10 </var>
    <var id="x54"> 3..5 9 </var>
    <var id="x55"> 0 3 4 8 </var>
    <var id="x56"> 4 6 8 </var>
    <var id="x57"> 9 17 </var>
    <var id="x58"> 4 6 8 </var>
    <var id="x59"> 6 8 14 17 </var>
    <var id="x60"> 4 9 </var>
    <var id="x61"> 6 9 14 16 17 </var>
    <var id="x62"> 4 9 14 16 </var>
    <var id="x63"> 0 9 </var>
    <var id="x64"> 1 9 </var>
    <var id="x65"> 0 4 8 </var>
    <var id="x66"> 0 4 8 9 </var>
    <var id="x67"> 1 4 5 8 14 </var>
    <var id="x68"> 1 4 5 8 9 14 </var>
    <var id="x69"> 0 8 9 14 </var>
    <var id="x70"> 3 9 11 12 </var>
    <var id="x71"> 0 5 6 11 </var>
    <var id="x72"> 0 3 17 </var>
    <var id="x73"> 3 5 6 17 </var>
    <var id="x74"> 0 9 11 </var>
    <var id="x75"> 5 9 12 </var>
    <var id="x76"> 0 9 11 12 </var>
    <var id="x77"> 0 3 6 17 </var>
    <var id="x78"> 0 4 15 </var>
    <var id="x79"> 0 2 12 13 </var>
    <var id="x80"> 0 3 12 13 15 </var>
    <var id="x81"> 0 4 15 </var>
    <var id="x82"> 0 12 13 </var>
    <var id="x83"> 3 4 12 13 </var>
    <var id="x84"> 0 3 4 13 </var>
    <var id="x85"> 3 9 12 14 </var>
    <var id="x86"> 0 4 8 </var>
    <var id="x87"> 0 2..4 8 </var>
    <var id="x88"> 3 4 8 14 </var>
    <var id="x89"> 2 4 8 9 12 14 </var>
    <var id="x90"> 0 2..4 9 </var>
    <var id="x91"> 3 9 14 </var>
    <var id="x92"> 0 3 4 8 14 </var>
    <var id="x93"> 11..13 </var>
    <var id="x94"> 0 6 10 13 17 </var>
    <var id="x95"> 0 10 17 </var>
    <var id="x96"> 0 13 17 </var>
    <var id="x97"> 0 5 12 13 17 </var>
    <var id="x98"> 6 10 </var>
    <var id="x99"> 0 10..13 </var>
    <var id="x100"> 5 12 13 </var>
    <var id="x101"> 7 9 13 14 </var>
    <var id="x102"> 5..8 </var>
    <var id="x103"> 7 9 17 </var>
    <var id="x104"> 5 13 14 17 </var>
    <var id="x105"> 6..8 </var>
    <var id="x106"> 7..9 </var>
    <var id="x107"> 5 7 9 </var>
    <var id="x108"> 6 8 13 14 17 </var>
    <var id="x109"> 0 1 8 10 13 17 </var>
    <var id="x110"> 1 3 10 13 17 </var>
    <var id="x111"> 0 8 13 17 </var>
    <var id="x112"> 3 8 10 13 14 17 </var>
    <var id="x113"> 1 3 8 14 </var>
    <var id="x114"> 1 8 14 </var>
    <var id="x115"> 0 3 10 </var>
    <var id="x116"> 3 13 14 </var>
    <var id="x117"> 3 8 13 16 </var>
    <var id="x118"> 3 7 8 10 15 </var>
    <var id="x119"> 3 8 10 13 14 </var>
    <var id="x120"> 7 8 10 15 </var>
    <var id="x121"> 3 7 8 14 </var>
    <var id="x122"> 8 10 13 14 </var>
    <var id="x123"> 3 7 14 16 </var>
    <var id="x124"> 3 13 14 16 </var>
    <var id="x125"> 0 6 8 11 </var>
    <var id="x126"> 0 2 6 8 17 </var>
    <var id="x127"> 0 14 17 </var>
    <var id="x128"> 6 8 </var>
    <var id="x129"> 2 8 9 14 </var>
    <var id="x130"> 0 2 9 </var>
    <var id="x131"> 0 8 9 11 14 </var>
    <var id="x132"> 6 9 14 17 </var>
    <var id="x133"> 0 4 8 </var>
    <var id="x134"> 0 4 8 10 13 17 </var>
    <var id="x135"> 0 8 12 13 17 </var>
    <var id="x136"> 0 3 4 8 13 17 </var>
    <var id="x137"> 0 3 12 13 17 </var>
    <var id="x138"> 0 3 4 10 </var>
    <var id="x139"> 0 8 10 12 13 </var>
    <var as="x136" id="x140"/>
  </variables>
  <constraints>
    <group>
      <allDifferent> %... </allDifferent>
      <args> x0 x1 x2 x3 x4 x5 x6 x7 </args>
      <args> x8 x9 x10 x11 x12 x13 x14 x15 </args>
      <args> x16 x17 x18 x19 x20 x21 x22 x23 </args>
      <args> x24 x25 x26 x27 x28 x29 x30 x31 </args>
      <args> x32 x33 x34 x35 x36 x37 x38 x39 </args>
      <args> x40 x41 x42 x43 x44 x45 x46 x47 </args>
      <args> x48 x49 x50 x51 x52 x53 x54 x55 </args>
      <args> x56 x57 x58 x59 x60 x61 x62 </args>
      <args> x63 x64 x65 x66 x67 x68 x69 </args>
      <args> x70 x71 x72 x73 x74 x75 x76 x77 </args>
      <args> x78 x79 x80 x81 x82 x83 x84 </args>
      <args> x85 x86 x87 x88 x89 x90 x91 x92 </args>
      <args> x93 x94 x95 x96 x97 x98 x99 x100 </args>
      <args> x101 x102 x103 x104 x105 x106 x107 x108 </args>
      <args> x109 x110 x111 x112 x113 x114 x115 x116 </args>
      <args> x117 x118 x119 x120 x121 x122 x123 x124 </args>
      <args> x125 x126 x127 x128 x129 x130 x131 x132 </args>
      <args> x133 x134 x135 x136 x137 x138 x139 x140 </args>
      <args> x0 x32 x40 x48 x70 x85 x93 x101 </args>
      <args> x24 x33 x56 x71 x78 x102 x125 x133 </args>
      <args> x1 x16 x34 x49 x86 x94 x109 x134 </args>
      <args> x2 x8 x25 x35 x63 x95 x103 </args>
      <args> x9 x17 x26 x36 x57 x64 x110 </args>
      <args> x3 x18 x27 x41 x79 x111 x126 x135 </args>
      <args> x10 x50 x65 x72 x87 x96 x117 x136 </args>
      <args> x11 x19 x28 x80 x97 x104 x127 x137 </args>
      <args> x4 x37 x58 x98 x105 x118 x128 </args>
      <args> x12 x20 x42 x51 x59 x73 x112 x119 </args>
      <args> x21 x29 x52 x66 x74 x81 x106 x120 </args>
      <args> x5 x13 x30 x43 x67 x88 x113 x121 </args>
      <args> x6 x38 x44 x68 x75 x89 x114 x129 </args>
      <args> x22 x53 x60 x90 x107 x115 x130 x138 </args>
      <args> x45 x69 x76 x82 x99 x122 x131 x139 </args>
      <args> x7 x14 x39 x46 x61 x91 x123 x132 </args>
      <args> x23 x31 x54 x62 x83 x100 x116 x124 </args>
      <args> x15 x47 x55 x77 x84 x92 x108 x140 </args>
    </group>
  </constraints>
</instance>

